DATASET = "thpack2";
INSTANCE = "052";

WIDTH = 233;
HEIGHT = 220;
LENGTH = 587;

NO_OF_SHAPES = 5;
size = [|
  96,72,31 |
  75,72,47 |
  80,25,20 |
  114,94,61 |
  100,40,39 |
|];

verticality = [|
  0,0,1 |
  1,1,1 |
  0,1,1 |
  1,1,1 |
  0,1,1 |
|];

box_count = [
  17,
  24,
  17,
  26,
  17,
];
